// Dezyne --- Dezyne command line tools
//
// Copyright © 2015 Jan Nieuwenhuizen <janneke@gnu.org>
//
// This file is part of Dezyne.
//
// Dezyne is free software: you can redistribute it and/or modify it
// under the terms of the GNU Affero General Public License as
// published by the Free Software Foundation, either version 3 of the
// License, or (at your option) any later version.
//
// Dezyne is distributed in the hope that it will be useful, but
// WITHOUT ANY WARRANTY; without even the implied warranty of
// MERCHANTABILITY or FITNESS FOR A PARTICULAR PURPOSE.  See the GNU
// Affero General Public License for more details.
//
// You should have received a copy of the GNU Affero General Public
// License along with Dezyne.  If not, see <http://www.gnu.org/licenses/>.
//
// Commentary:
//
// Code:

// /////////////////////////////////////////////////////////////////////////////
//
// File generated by   : Verum ASD:Suite Release 0, version 0.0.0.0
// Language            : asd
//
// Model name          : OutParam
// Model file          : OutParam.dm
// Model last updated  : 2015-Oct-21 15:47:21
// Model fingerprint   : C397C052
//
// Version             : 1.0
// Project             :
// Author              :
// Component type      : Multiple
// Execution model     : Multi-threaded
// Broadcasting        : No
//
// /////////////////////////////////////////////////////////////////////////////
//
// Basis for testing parameter passing.
//
// /////////////////////////////////////////////////////////////////////////////



import IOutParam.dzn;
import IMultiStepOutParam.dzn;

component OutParamComp
{
  provides IOutParam outParam;
  requires IMultiStepOutParam datasource;

  behaviour
  {
    enum States {Available, WaitReceive /*- pending_reply == true -*/ };

    States state_ = States.Available;
    bool pending_reply = false;
    bool synchronous = false;

    xint nr;
    xint nr__STORE;// Capture data at Reply (ASD semantics)

    [state_.Available]
    {
      blocking on outParam.e_out(number__ <- nr__STORE):
      {
         /*- Reply at end of transaction -*/
        pending_reply = true;
        synchronous = true;
        WaitInit_datasource_Init();
        number__ = nr__STORE;
      }
      blocking on outParam.e_out_async(number__ <- nr__STORE):
      {
         /*- Reply at end of transaction -*/
        pending_reply = true;
        synchronous = false;
        WaitInit_datasource_Init();
        number__ = nr__STORE;
      }
      blocking on outParam.e_inout(number__ <- nr__STORE):
      {
         /*- Reply at end of transaction -*/
        nr = number__;
        pending_reply = true;
        synchronous = true;
        WaitInit_datasource_Init();
        number__ = nr__STORE;
      }
      blocking on outParam.e_inout_async(number__):
      {
         /*- Reply at end of transaction -*/
        pending_reply = true;
        synchronous = false;
        WaitInit_datasource_Init();
      }
      on outParam.e_outdated(number__):
      {
         /*- Early Reply ensures output parameter not modified after this point. -*/
        number__ = nr;
        pending_reply = false;
        synchronous = true;
        // WARNING: in ASD: following a reply, Data Parameters are modified in the next (synchronous return) state
        WaitInit_datasource_Init();
      }
      on datasource.ReceiveData:
      {
        illegal;
      }
    }

    [state_.WaitReceive]
    {
      on datasource.ReceiveData(number__):
      {
        nr = number__;
        datasource.Term();
        outParam.reply();
        pending_reply = false;
        state_ = States.Available;
      }
      on outParam.e_out,
          outParam.e_out_async,
          outParam.e_inout,
          outParam.e_inout_async,
          outParam.e_outdated:
      {
        illegal;
      }
    }

     /*- Reply at end of transaction -*/
    void WaitInit_datasource_Init()
    {
      IMultiStepOutParam.IMultiStepOutParam_Values value_ = datasource.Init();

      if (value_.Ok)
      {
        if (synchronous)
        {
          WaitGet_datasource_GetData(nr);
        }
        else
        {
          datasource.RequestData();
          state_ = States.WaitReceive;
        }
      }
      else
      {
        illegal;
      }
    }

    void WaitGet_datasource_GetData(out xint nr)
    {
      IMultiStepOutParam.IMultiStepOutParam_Values value_ = datasource.GetData(nr);

      if (value_.Ok)
      {
        if (pending_reply)
        {
          datasource.Term();
          outParam.reply();
          nr__STORE = nr;
          pending_reply = false;
          state_ = States.Available;
        }
        else
        {
          datasource.Term();
          pending_reply = false;
          state_ = States.Available;
        }
      }
      else
      {
        illegal;
      }
    }

  }
}
